NAME: cuum800.tsp
TYPE: TSP
COMMENT: User-generated TSP file
DIMENSION: 800
EDGE_WEIGHT_TYPE: EUC_2D
NODE_COORD_SECTION
1 22.0 539.0
2 733.0 715.0
3 453.0 302.0
4 446.0 519.0
5 89.0 471.0
6 419.0 455.0
7 33.0 731.0
8 399.0 509.0
9 783.0 392.0
10 110.0 565.0
11 737.0 741.0
12 359.0 455.0
13 47.0 530.0
14 15.0 177.0
15 169.0 108.0
16 673.0 127.0
17 144.0 675.0
18 615.0 720.0
19 752.0 524.0
20 216.0 75.0
21 734.0 561.0
22 80.0 568.0
23 529.0 308.0
24 126.0 418.0
25 197.0 23.0
26 32.0 779.0
27 450.0 662.0
28 511.0 318.0
29 167.0 275.0
30 62.0 330.0
31 626.0 454.0
32 564.0 326.0
33 525.0 18.0
34 117.0 346.0
35 389.0 744.0
36 789.0 9.0
37 673.0 262.0
38 568.0 776.0
39 794.0 797.0
40 188.0 714.0
41 445.0 326.0
42 132.0 706.0
43 360.0 513.0
44 703.0 609.0
45 217.0 378.0
46 63.0 721.0
47 601.0 105.0
48 150.0 795.0
49 138.0 391.0
50 737.0 549.0
51 11.0 175.0
52 160.0 27.0
53 35.0 715.0
54 762.0 658.0
55 511.0 510.0
56 740.0 7.0
57 644.0 176.0
58 784.0 285.0
59 342.0 154.0
60 131.0 196.0
61 561.0 112.0
62 507.0 478.0
63 211.0 247.0
64 68.0 101.0
65 24.0 258.0
66 619.0 751.0
67 769.0 789.0
68 712.0 124.0
69 451.0 485.0
70 64.0 771.0
71 661.0 621.0
72 161.0 690.0
73 126.0 175.0
74 494.0 147.0
75 666.0 152.0
76 773.0 612.0
77 59.0 672.0
78 416.0 154.0
79 669.0 751.0
80 549.0 108.0
81 157.0 685.0
82 143.0 349.0
83 26.0 434.0
84 593.0 502.0
85 64.0 363.0
86 467.0 64.0
87 177.0 693.0
88 199.0 300.0
89 103.0 72.0
90 448.0 270.0
91 457.0 678.0
92 390.0 612.0
93 708.0 166.0
94 252.0 468.0
95 690.0 279.0
96 77.0 651.0
97 414.0 617.0
98 724.0 731.0
99 558.0 224.0
100 579.0 226.0
101 784.0 743.0
102 220.0 522.0
103 125.0 216.0
104 373.0 314.0
105 669.0 42.0
106 66.0 468.0
107 483.0 290.0
108 625.0 38.0
109 122.0 256.0
110 148.0 517.0
111 273.0 592.0
112 201.0 221.0
113 568.0 233.0
114 348.0 144.0
115 797.0 786.0
116 669.0 565.0
117 620.0 603.0
118 114.0 143.0
119 58.0 552.0
120 368.0 341.0
121 424.0 59.0
122 651.0 115.0
123 557.0 251.0
124 574.0 642.0
125 597.0 436.0
126 339.0 757.0
127 710.0 638.0
128 356.0 364.0
129 376.0 672.0
130 549.0 89.0
131 354.0 347.0
132 754.0 528.0
133 41.0 635.0
134 626.0 201.0
135 739.0 189.0
136 89.0 363.0
137 485.0 369.0
138 502.0 132.0
139 306.0 375.0
140 86.0 363.0
141 317.0 778.0
142 772.0 548.0
143 550.0 338.0
144 106.0 85.0
145 139.0 164.0
146 368.0 182.0
147 72.0 534.0
148 410.0 565.0
149 239.0 466.0
150 323.0 750.0
151 183.0 380.0
152 614.0 637.0
153 210.0 173.0
154 596.0 560.0
155 701.0 595.0
156 557.0 295.0
157 316.0 304.0
158 422.0 98.0
159 462.0 497.0
160 300.0 479.0
161 413.0 630.0
162 141.0 485.0
163 4.0 753.0
164 121.0 494.0
165 35.0 481.0
166 303.0 283.0
167 79.0 410.0
168 474.0 713.0
169 662.0 597.0
170 121.0 85.0
171 352.0 172.0
172 302.0 433.0
173 231.0 478.0
174 652.0 478.0
175 796.0 276.0
176 116.0 240.0
177 509.0 225.0
178 215.0 207.0
179 653.0 397.0
180 663.0 276.0
181 55.0 310.0
182 171.0 334.0
183 648.0 317.0
184 537.0 603.0
185 494.0 543.0
186 718.0 260.0
187 584.0 391.0
188 640.0 214.0
189 570.0 642.0
190 77.0 273.0
191 450.0 778.0
192 166.0 225.0
193 59.0 120.0
194 664.0 74.0
195 673.0 375.0
196 436.0 560.0
197 15.0 293.0
198 249.0 96.0
199 59.0 56.0
200 4.0 126.0
201 1.0 298.0
202 625.0 53.0
203 11.0 444.0
204 379.0 22.0
205 738.0 392.0
206 143.0 439.0
207 616.0 401.0
208 329.0 684.0
209 551.0 422.0
210 675.0 610.0
211 38.0 423.0
212 731.0 737.0
213 696.0 449.0
214 411.0 475.0
215 92.0 427.0
216 518.0 465.0
217 76.0 510.0
218 499.0 189.0
219 140.0 668.0
220 163.0 532.0
221 646.0 267.0
222 471.0 511.0
223 519.0 472.0
224 84.0 706.0
225 17.0 797.0
226 500.0 480.0
227 579.0 598.0
228 477.0 410.0
229 197.0 426.0
230 209.0 88.0
231 639.0 196.0
232 774.0 713.0
233 118.0 754.0
234 372.0 500.0
235 614.0 393.0
236 230.0 561.0
237 414.0 342.0
238 292.0 94.0
239 203.0 763.0
240 335.0 244.0
241 221.0 156.0
242 149.0 296.0
243 181.0 244.0
244 142.0 410.0
245 637.0 304.0
246 412.0 729.0
247 571.0 106.0
248 86.0 740.0
249 674.0 103.0
250 166.0 432.0
251 709.0 115.0
252 603.0 757.0
253 319.0 676.0
254 384.0 575.0
255 773.0 433.0
256 744.0 325.0
257 232.0 246.0
258 596.0 617.0
259 533.0 594.0
260 362.0 157.0
261 755.0 449.0
262 489.0 600.0
263 71.0 589.0
264 696.0 546.0
265 49.0 102.0
266 589.0 511.0
267 645.0 478.0
268 760.0 630.0
269 396.0 215.0
270 312.0 446.0
271 146.0 740.0
272 123.0 432.0
273 711.0 731.0
274 231.0 783.0
275 368.0 80.0
276 358.0 795.0
277 70.0 39.0
278 90.0 495.0
279 751.0 299.0
280 763.0 720.0
281 402.0 456.0
282 337.0 109.0
283 401.0 198.0
284 465.0 319.0
285 370.0 479.0
286 789.0 202.0
287 68.0 406.0
288 322.0 715.0
289 281.0 477.0
290 657.0 704.0
291 795.0 690.0
292 127.0 453.0
293 380.0 794.0
294 769.0 121.0
295 306.0 166.0
296 286.0 471.0
297 634.0 446.0
298 207.0 308.0
299 31.0 764.0
300 96.0 106.0
301 416.0 154.0
302 625.0 117.0
303 350.0 124.0
304 206.0 418.0
305 99.0 544.0
306 300.0 560.0
307 387.0 449.0
308 374.0 592.0
309 653.0 450.0
310 1.0 147.0
311 501.0 520.0
312 181.0 151.0
313 68.0 151.0
314 742.0 406.0
315 488.0 472.0
316 115.0 559.0
317 349.0 123.0
318 650.0 174.0
319 339.0 658.0
320 537.0 183.0
321 327.0 766.0
322 686.0 666.0
323 51.0 569.0
324 759.0 3.0
325 444.0 459.0
326 63.0 85.0
327 617.0 551.0
328 775.0 611.0
329 88.0 321.0
330 242.0 592.0
331 687.0 184.0
332 283.0 10.0
333 21.0 671.0
334 769.0 388.0
335 473.0 800.0
336 655.0 405.0
337 32.0 32.0
338 661.0 377.0
339 513.0 67.0
340 722.0 233.0
341 602.0 189.0
342 673.0 708.0
343 384.0 29.0
344 786.0 115.0
345 438.0 457.0
346 188.0 285.0
347 730.0 221.0
348 786.0 461.0
349 600.0 78.0
350 263.0 734.0
351 657.0 347.0
352 761.0 149.0
353 585.0 743.0
354 769.0 526.0
355 768.0 109.0
356 32.0 582.0
357 619.0 726.0
358 251.0 74.0
359 135.0 49.0
360 328.0 333.0
361 272.0 512.0
362 390.0 225.0
363 68.0 670.0
364 22.0 179.0
365 659.0 483.0
366 623.0 497.0
367 475.0 20.0
368 455.0 140.0
369 164.0 588.0
370 487.0 476.0
371 338.0 197.0
372 85.0 500.0
373 403.0 197.0
374 303.0 719.0
375 62.0 41.0
376 269.0 556.0
377 173.0 288.0
378 48.0 614.0
379 548.0 357.0
380 189.0 208.0
381 545.0 331.0
382 691.0 524.0
383 282.0 686.0
384 617.0 3.0
385 648.0 78.0
386 74.0 754.0
387 711.0 728.0
388 536.0 320.0
389 381.0 297.0
390 359.0 482.0
391 105.0 261.0
392 465.0 194.0
393 581.0 635.0
394 521.0 605.0
395 558.0 170.0
396 425.0 471.0
397 299.0 741.0
398 619.0 267.0
399 237.0 107.0
400 688.0 147.0
401 106.0 486.0
402 155.0 425.0
403 668.0 467.0
404 583.0 533.0
405 445.0 176.0
406 151.0 54.0
407 316.0 160.0
408 262.0 402.0
409 8.0 785.0
410 430.0 384.0
411 791.0 43.0
412 213.0 476.0
413 197.0 630.0
414 629.0 692.0
415 699.0 388.0
416 257.0 15.0
417 613.0 308.0
418 748.0 166.0
419 46.0 509.0
420 533.0 528.0
421 82.0 23.0
422 772.0 472.0
423 477.0 791.0
424 473.0 665.0
425 244.0 125.0
426 713.0 20.0
427 217.0 698.0
428 652.0 729.0
429 32.0 658.0
430 623.0 393.0
431 374.0 16.0
432 560.0 266.0
433 760.0 474.0
434 735.0 519.0
435 252.0 781.0
436 698.0 646.0
437 347.0 703.0
438 180.0 704.0
439 3.0 2.0
440 575.0 727.0
441 197.0 688.0
442 177.0 468.0
443 542.0 643.0
444 462.0 351.0
445 486.0 233.0
446 306.0 793.0
447 199.0 195.0
448 646.0 34.0
449 166.0 54.0
450 204.0 538.0
451 424.0 102.0
452 63.0 539.0
453 521.0 715.0
454 158.0 729.0
455 62.0 799.0
456 180.0 437.0
457 251.0 94.0
458 386.0 444.0
459 356.0 688.0
460 530.0 613.0
461 83.0 158.0
462 130.0 763.0
463 504.0 446.0
464 489.0 179.0
465 84.0 472.0
466 758.0 135.0
467 629.0 686.0
468 677.0 28.0
469 458.0 638.0
470 785.0 558.0
471 690.0 226.0
472 471.0 557.0
473 324.0 558.0
474 235.0 421.0
475 150.0 96.0
476 762.0 65.0
477 523.0 264.0
478 391.0 715.0
479 143.0 353.0
480 565.0 369.0
481 709.0 555.0
482 594.0 495.0
483 239.0 40.0
484 755.0 489.0
485 778.0 148.0
486 6.0 639.0
487 485.0 568.0
488 384.0 390.0
489 689.0 516.0
490 507.0 49.0
491 743.0 90.0
492 38.0 113.0
493 734.0 239.0
494 18.0 333.0
495 757.0 585.0
496 629.0 461.0
497 345.0 403.0
498 529.0 21.0
499 577.0 713.0
500 90.0 268.0
501 738.0 655.0
502 159.0 55.0
503 385.0 653.0
504 414.0 597.0
505 501.0 553.0
506 624.0 297.0
507 698.0 61.0
508 714.0 29.0
509 752.0 634.0
510 50.0 603.0
511 792.0 406.0
512 653.0 496.0
513 623.0 759.0
514 276.0 101.0
515 443.0 386.0
516 243.0 554.0
517 331.0 256.0
518 51.0 465.0
519 395.0 380.0
520 630.0 29.0
521 652.0 159.0
522 154.0 134.0
523 52.0 432.0
524 753.0 445.0
525 432.0 772.0
526 126.0 584.0
527 682.0 40.0
528 170.0 402.0
529 462.0 133.0
530 196.0 456.0
531 735.0 2.0
532 293.0 410.0
533 241.0 643.0
534 723.0 6.0
535 755.0 330.0
536 188.0 589.0
537 60.0 222.0
538 204.0 789.0
539 406.0 580.0
540 113.0 182.0
541 532.0 376.0
542 766.0 489.0
543 495.0 410.0
544 626.0 289.0
545 453.0 628.0
546 81.0 771.0
547 341.0 227.0
548 425.0 417.0
549 207.0 502.0
550 490.0 623.0
551 655.0 188.0
552 66.0 359.0
553 361.0 486.0
554 359.0 575.0
555 591.0 743.0
556 128.0 261.0
557 7.0 688.0
558 210.0 84.0
559 2.0 665.0
560 615.0 530.0
561 204.0 442.0
562 291.0 328.0
563 517.0 81.0
564 217.0 52.0
565 621.0 98.0
566 782.0 642.0
567 434.0 783.0
568 635.0 765.0
569 545.0 280.0
570 327.0 659.0
571 362.0 192.0
572 780.0 305.0
573 430.0 13.0
574 374.0 9.0
575 584.0 9.0
576 519.0 643.0
577 171.0 249.0
578 605.0 157.0
579 365.0 787.0
580 123.0 759.0
581 209.0 765.0
582 395.0 446.0
583 471.0 6.0
584 757.0 435.0
585 701.0 65.0
586 522.0 626.0
587 416.0 83.0
588 645.0 510.0
589 134.0 681.0
590 220.0 134.0
591 242.0 50.0
592 423.0 2.0
593 381.0 422.0
594 276.0 459.0
595 770.0 381.0
596 452.0 398.0
597 108.0 332.0
598 629.0 782.0
599 17.0 585.0
600 556.0 735.0
601 18.0 571.0
602 791.0 376.0
603 192.0 198.0
604 553.0 244.0
605 229.0 288.0
606 92.0 10.0
607 234.0 248.0
608 631.0 42.0
609 752.0 405.0
610 234.0 722.0
611 519.0 520.0
612 360.0 433.0
613 287.0 301.0
614 707.0 714.0
615 688.0 212.0
616 472.0 305.0
617 440.0 338.0
618 261.0 295.0
619 427.0 560.0
620 296.0 284.0
621 348.0 182.0
622 752.0 523.0
623 761.0 687.0
624 22.0 191.0
625 673.0 463.0
626 159.0 315.0
627 554.0 442.0
628 279.0 521.0
629 352.0 499.0
630 33.0 564.0
631 406.0 354.0
632 722.0 584.0
633 646.0 26.0
634 404.0 152.0
635 395.0 685.0
636 524.0 366.0
637 179.0 651.0
638 432.0 279.0
639 798.0 334.0
640 484.0 416.0
641 198.0 151.0
642 430.0 184.0
643 5.0 370.0
644 216.0 12.0
645 611.0 430.0
646 698.0 441.0
647 752.0 626.0
648 342.0 715.0
649 59.0 344.0
650 38.0 799.0
651 112.0 215.0
652 274.0 447.0
653 150.0 66.0
654 694.0 360.0
655 282.0 424.0
656 6.0 531.0
657 618.0 173.0
658 113.0 477.0
659 400.0 748.0
660 104.0 243.0
661 556.0 63.0
662 279.0 597.0
663 192.0 459.0
664 90.0 27.0
665 549.0 213.0
666 600.0 328.0
667 174.0 778.0
668 493.0 705.0
669 133.0 449.0
670 63.0 358.0
671 527.0 373.0
672 451.0 109.0
673 536.0 609.0
674 77.0 49.0
675 299.0 424.0
676 602.0 371.0
677 455.0 242.0
678 211.0 198.0
679 314.0 446.0
680 473.0 267.0
681 225.0 681.0
682 763.0 368.0
683 244.0 692.0
684 179.0 796.0
685 596.0 609.0
686 282.0 360.0
687 443.0 703.0
688 155.0 89.0
689 2.0 216.0
690 202.0 298.0
691 588.0 628.0
692 188.0 459.0
693 537.0 532.0
694 669.0 497.0
695 445.0 92.0
696 792.0 505.0
697 65.0 792.0
698 449.0 452.0
699 174.0 538.0
700 61.0 472.0
701 175.0 86.0
702 341.0 72.0
703 577.0 348.0
704 200.0 581.0
705 799.0 697.0
706 498.0 691.0
707 483.0 431.0
708 498.0 600.0
709 423.0 732.0
710 767.0 320.0
711 670.0 73.0
712 420.0 184.0
713 455.0 447.0
714 546.0 22.0
715 513.0 326.0
716 694.0 159.0
717 335.0 112.0
718 159.0 425.0
719 204.0 753.0
720 397.0 402.0
721 617.0 382.0
722 311.0 467.0
723 178.0 198.0
724 354.0 387.0
725 456.0 405.0
726 1.0 212.0
727 212.0 650.0
728 239.0 767.0
729 371.0 598.0
730 207.0 628.0
731 382.0 747.0
732 634.0 14.0
733 283.0 703.0
734 714.0 369.0
735 573.0 283.0
736 718.0 734.0
737 525.0 52.0
738 439.0 458.0
739 773.0 267.0
740 618.0 200.0
741 658.0 354.0
742 347.0 515.0
743 41.0 440.0
744 786.0 331.0
745 393.0 600.0
746 653.0 184.0
747 534.0 124.0
748 511.0 481.0
749 646.0 347.0
750 759.0 374.0
751 740.0 119.0
752 355.0 412.0
753 246.0 49.0
754 146.0 645.0
755 602.0 589.0
756 349.0 747.0
757 124.0 36.0
758 197.0 240.0
759 611.0 194.0
760 476.0 102.0
761 641.0 294.0
762 207.0 675.0
763 566.0 96.0
764 545.0 31.0
765 54.0 721.0
766 781.0 366.0
767 500.0 712.0
768 332.0 123.0
769 74.0 328.0
770 595.0 76.0
771 614.0 783.0
772 424.0 7.0
773 725.0 740.0
774 441.0 169.0
775 387.0 361.0
776 213.0 253.0
777 282.0 546.0
778 38.0 578.0
779 558.0 341.0
780 94.0 602.0
781 75.0 21.0
782 325.0 433.0
783 431.0 333.0
784 503.0 406.0
785 215.0 726.0
786 219.0 607.0
787 454.0 75.0
788 477.0 129.0
789 153.0 736.0
790 9.0 80.0
791 47.0 721.0
792 115.0 84.0
793 450.0 385.0
794 294.0 185.0
795 376.0 159.0
796 33.0 568.0
797 234.0 269.0
798 722.0 139.0
799 325.0 324.0
800 581.0 621.0
EOF





